NAME 
ROWS
 N  OBJ
 L  R0      
 E  R1      
 E  R2      
 E  R3      
 E  R4      
 E  R5      
 E  R6      
 E  R7      
 E  R8      
 E  R9      
 E  R10     
 E  R11     
 E  R12     
 E  R13     
 E  R14     
 E  R15     
 E  R16     
 E  R17     
 E  R18     
 E  R19     
 E  R20     
 E  R21     
 E  R22     
 E  R23     
 E  R24     
 E  R25     
 E  R26     
 E  R27     
 E  R28     
 E  R29     
 E  R30     
COLUMNS
    MARKER    'MARKER'                 'INTORG'
    I0(3)     OBJ       155
    I0(3)     R0        185
    I0(3)     R1        2
    I0(3)     R30       1
    I1(3)     OBJ       6
    I1(3)     R0        10
    I1(3)     R2        13
    I1(3)     R30       1
    I2(3)     OBJ       -11
    I2(3)     R0        -97
    I2(3)     R3        15
    I2(3)     R30       1
    I3(3)     OBJ       -82
    I3(3)     R0        -56
    I3(3)     R4        5
    I3(3)     R30       1
    I4(3)     OBJ       -127
    I4(3)     R0        -195
    I4(3)     R5        4
    I4(3)     R30       1
    I5(3)     OBJ       -192
    I5(3)     R0        114
    I5(3)     R6        12
    I5(3)     R30       1
    I6(3)     OBJ       28
    I6(3)     R0        56
    I6(3)     R7        -1
    I6(3)     R30       1
    I7(3)     OBJ       31
    I7(3)     R0        188
    I7(3)     R8        4
    I7(3)     R30       1
    I8(3)     OBJ       -88
    I8(3)     R0        -90
    I8(3)     R9        17
    I8(3)     R30       1
    I9(3)     OBJ       -42
    I9(3)     R0        -36
    I9(3)     R10       6
    I9(3)     R30       1
    I10(3)    OBJ       8
    I10(3)    R0        161
    I10(3)    R11       7
    I10(3)    R30       1
    I11(3)    OBJ       -193
    I11(3)    R0        -21
    I11(3)    R12       10
    I11(3)    R30       1
    I12(3)    OBJ       4
    I12(3)    R0        -173
    I12(3)    R13       19
    I12(3)    R30       1
    I13(2)    OBJ       199
    I13(2)    R0        87
    I13(2)    R30       1
    I14(3)    OBJ       -87
    I14(3)    R0        58
    I14(3)    R15       2
    I14(3)    R30       1
    I15(3)    OBJ       -120
    I15(3)    R0        124
    I15(3)    R16       16
    I15(3)    R30       1
    I16(3)    OBJ       -173
    I16(3)    R0        94
    I16(3)    R17       17
    I16(3)    R30       1
    I17(3)    OBJ       -156
    I17(3)    R0        -95
    I17(3)    R18       17
    I17(3)    R30       1
    I18(3)    OBJ       5
    I18(3)    R0        -53
    I18(3)    R19       18
    I18(3)    R30       1
    I19(3)    OBJ       3
    I19(3)    R0        74
    I19(3)    R20       18
    I19(3)    R30       1
    I20(3)    OBJ       -135
    I20(3)    R0        169
    I20(3)    R21       17
    I20(3)    R30       1
    I21(3)    OBJ       -170
    I21(3)    R0        45
    I21(3)    R22       8
    I21(3)    R30       1
    I22(3)    OBJ       -114
    I22(3)    R0        -65
    I22(3)    R23       9
    I22(3)    R30       1
    I23(3)    OBJ       -75
    I23(3)    R0        156
    I23(3)    R24       8
    I23(3)    R30       1
    I24(3)    OBJ       -54
    I24(3)    R0        164
    I24(3)    R25       18
    I24(3)    R30       1
    I25(3)    OBJ       54
    I25(3)    R0        -91
    I25(3)    R26       7
    I25(3)    R30       1
    I26(3)    OBJ       177
    I26(3)    R0        -42
    I26(3)    R27       19
    I26(3)    R30       1
    I27(3)    OBJ       -63
    I27(3)    R0        -10
    I27(3)    R28       7
    I27(3)    R30       1
    MARKER    'MARKER'                 'INTEND'
    C28(28)   R0        1
    C28(28)   R3        13
    C28(28)   R4        14
    C28(28)   R5        1
    C28(28)   R6        10
    C28(28)   R7        11
    C28(28)   R8        13
    C28(28)   R9        -1
    C28(28)   R10       15
    C28(28)   R11       11
    C28(28)   R12       4
    C28(28)   R13       4
    C28(28)   R14       14
    C28(28)   R15       14
    C28(28)   R16       7
    C28(28)   R17       12
    C28(28)   R18       19
    C28(28)   R19       19
    C28(28)   R20       16
    C28(28)   R21       18
    C28(28)   R22       19
    C28(28)   R23       14
    C28(28)   R24       13
    C28(28)   R25       -1
    C28(28)   R26       6
    C28(28)   R27       7
    C28(28)   R28       -1
    C28(28)   R29       13
    C29(30)   OBJ       -1
    C29(30)   R0        1
    C29(30)   R1        2
    C29(30)   R2        6
    C29(30)   R3        8
    C29(30)   R4        15
    C29(30)   R5        12
    C29(30)   R6        7
    C29(30)   R7        11
    C29(30)   R8        14
    C29(30)   R9        6
    C29(30)   R10       -1
    C29(30)   R11       4
    C29(30)   R12       8
    C29(30)   R13       17
    C29(30)   R14       5
    C29(30)   R15       19
    C29(30)   R16       -1
    C29(30)   R17       14
    C29(30)   R18       16
    C29(30)   R19       10
    C29(30)   R20       3
    C29(30)   R21       3
    C29(30)   R22       -1
    C29(30)   R23       5
    C29(30)   R24       1
    C29(30)   R25       7
    C29(30)   R26       11
    C29(30)   R27       9
    C29(30)   R28       14
    C29(30)   R29       4
    C30(1)    R1        1
    C31(1)    R2        1
    C32(1)    R3        1
    C33(1)    R4        1
    C34(1)    R5        1
    C35(1)    R6        1
    C36(1)    R7        1
    C37(1)    R8        1
    C38(1)    R9        1
    C39(1)    R10       1
    C40(1)    R11       1
    C41(1)    R12       1
    C42(1)    R13       1
    C43(1)    R14       1
    C44(1)    R15       1
    C45(1)    R16       1
    C46(1)    R17       1
    C47(1)    R18       1
    C48(1)    R19       1
    C49(1)    R20       1
    C50(1)    R21       1
    C51(1)    R22       1
    C52(1)    R23       1
    C53(1)    R24       1
    C54(1)    R25       1
    C55(1)    R26       1
    C56(1)    R27       1
    C57(1)    R28       1
    C58(1)    R29       1
    C59(1)    R30       1
RHS
    RHS1      R0        172.0625
    RHS1      R1        85
    RHS1      R2        93
    RHS1      R3        93
    RHS1      R4        86
    RHS1      R5        50
    RHS1      R6        52
    RHS1      R7        52
    RHS1      R8        99
    RHS1      R9        77
    RHS1      R10       51
    RHS1      R11       95
    RHS1      R12       73
    RHS1      R13       51
    RHS1      R14       73
    RHS1      R15       72
    RHS1      R16       69
    RHS1      R17       74
    RHS1      R18       50
    RHS1      R19       63
    RHS1      R20       59
    RHS1      R21       51
    RHS1      R22       59
    RHS1      R23       50
    RHS1      R24       90
    RHS1      R25       73
    RHS1      R26       89
    RHS1      R27       54
    RHS1      R28       97
    RHS1      R29       67
    RHS1      R30       9
BOUNDS
 UP BND1      I0(3)     1
 UP BND1      I1(3)     1
 UP BND1      I2(3)     1
 UP BND1      I3(3)     1
 UP BND1      I4(3)     1
 UP BND1      I5(3)     1
 UP BND1      I6(3)     1
 UP BND1      I7(3)     1
 UP BND1      I8(3)     1
 UP BND1      I9(3)     1
 UP BND1      I10(3)    1
 UP BND1      I11(3)    1
 UP BND1      I12(3)    1
 UP BND1      I13(2)    1
 UP BND1      I14(3)    1
 UP BND1      I15(3)    1
 UP BND1      I16(3)    1
 UP BND1      I17(3)    1
 UP BND1      I18(3)    1
 UP BND1      I19(3)    1
 UP BND1      I20(3)    1
 UP BND1      I21(3)    1
 UP BND1      I22(3)    1
 UP BND1      I23(3)    1
 UP BND1      I24(3)    1
 UP BND1      I25(3)    1
 UP BND1      I26(3)    1
 UP BND1      I27(3)    1
ENDATA
